NAME          OrnekMPS

OBJSENSE
 MAX
ROWS
 N  COST
 E LIM1
 E  LIM2
COLUMNS
    X1        COST               1.0   LIM1               1.0
	X1			LIM2 2.0			
    X2        COST               5.0   LIM1               2.0
	X2		LIM2  -1.0	
	X3		COST 	3.0				LIM1    1.0
RHS
    RHS1      LIM1               3.0		LIM2	4.0
ENDATA
